23210.33
44 50 39 61 20 84 10 76 58 95 74 83 43 6 56 33 7 1 92 38 9 23 15 36 32 53 55 64 82 31 13 63 91 97 0 80 12 62 51 65 27 66 90 93 41 68 45 85 94 67 73 26 99 4 71 72 37 3 21 86 14 96 28 30 5 49 75 24 29 69 87 35 70 59 17 98 79 18 11 54 16 89 88 19 2 22 34 42 60 52 77 40 46 48 57 78 25 8 81 47